<?xml version="1.0" encoding="utf-8" standalone="yes"?>
<SchedulingPeriod ID="sprint01" xmlns:xsi="http://www.w3.org/2001/XMLSchema-instance" xsi:noNamespaceSchemaLocation="competition.xsd">
  <StartDate>2010-01-01</StartDate>
  <EndDate>2010-01-28</EndDate>
  <CourseTypes>
    <Course ID="E">
      <StartTime>06:30:00</StartTime>
      <EndTime>14:30:00</EndTime>
      <Description>Early</Description>
    </Course>
    <Course ID="L">
      <StartTime>14:30:00</StartTime>
      <EndTime>22:30:00</EndTime>
      <Description>Late</Description>
    </Course>
    <Course ID="D">
      <StartTime>08:30:00</StartTime>
      <EndTime>16:30:00</EndTime>
      <Description>Day shift</Description>
    </Course>
    <Course ID="N">
      <StartTime>22:30:00</StartTime>
      <EndTime>06:30:00</EndTime>
      <Description>Night</Description>
    </Course>
  </CourseTypes>
  <Patterns>
    <Pattern ID="0" weight="1">
      <PatternEntries>
        <PatternEntry index="0">
          <CourseType>L</CourseType>
          <Day>Any</Day>
        </PatternEntry>
        <PatternEntry index="1">
          <CourseType>D</CourseType>
          <Day>Any</Day>
        </PatternEntry>
      </PatternEntries>
    </Pattern>
    <Pattern ID="1" weight="1">
      <PatternEntries>
        <PatternEntry index="0">
          <CourseType>D</CourseType>
          <Day>Any</Day>
        </PatternEntry>
        <PatternEntry index="1">
          <CourseType>E</CourseType>
          <Day>Any</Day>
        </PatternEntry>
        <PatternEntry index="2">
          <CourseType>D</CourseType>
          <Day>Any</Day>
        </PatternEntry>
      </PatternEntries>
    </Pattern>
    <Pattern ID="2" weight="1">
      <PatternEntries>
        <PatternEntry index="0">
          <CourseType>None</CourseType>
          <Day>Friday</Day>
        </PatternEntry>
        <PatternEntry index="1">
          <CourseType>Any</CourseType>
          <Day>Saturday</Day>
        </PatternEntry>
        <PatternEntry index="2">
          <CourseType>Any</CourseType>
          <Day>Sunday</Day>
        </PatternEntry>
      </PatternEntries>
    </Pattern>
  </Patterns>
  <Contracts>
    <Contract ID="0">
      <Description>fulltime</Description>
      <SingleAssignmentPerDay weight="1">true</SingleAssignmentPerDay>
      <MaxNumAssignments on="1" weight="1">16</MaxNumAssignments>
      <MinNumAssignments on="1" weight="1">9</MinNumAssignments>
      <MaxConsecutiveWorkingDays on="1" weight="1">8</MaxConsecutiveWorkingDays>
      <MinConsecutiveWorkingDays on="1" weight="1">2</MinConsecutiveWorkingDays>
      <MaxConsecutiveFreeDays on="1" weight="1">7</MaxConsecutiveFreeDays>
      <MinConsecutiveFreeDays on="1" weight="1">1</MinConsecutiveFreeDays>
      <MaxConsecutiveWorkingWeekends on="0" weight="0">8</MaxConsecutiveWorkingWeekends>
      <MinConsecutiveWorkingWeekends on="0" weight="0">2</MinConsecutiveWorkingWeekends>
      <MaxWorkingWeekendsInFourWeeks on="0" weight="0">0</MaxWorkingWeekendsInFourWeeks>
      <WeekendDefinition>SaturdaySunday</WeekendDefinition>
      <CompleteWeekends weight="1">true</CompleteWeekends>
      <IdenticalCourseTypesDuringWeekend weight="1">true</IdenticalCourseTypesDuringWeekend>
      <NoNightCourseBeforeFreeWeekend weight="0">false</NoNightCourseBeforeFreeWeekend>
      <UnwantedPatterns>
        <Pattern>0</Pattern>
        <Pattern>1</Pattern>
        <Pattern>2</Pattern>
      </UnwantedPatterns>
    </Contract>
    <Contract ID="1">
      <Description>75_time</Description>
      <SingleAssignmentPerDay weight="1">true</SingleAssignmentPerDay>
      <MaxNumAssignments on="1" weight="1">12</MaxNumAssignments>
      <MinNumAssignments on="1" weight="1">6</MinNumAssignments>
      <MaxConsecutiveWorkingDays on="1" weight="1">5</MaxConsecutiveWorkingDays>
      <MinConsecutiveWorkingDays on="1" weight="1">2</MinConsecutiveWorkingDays>
      <MaxConsecutiveFreeDays on="1" weight="1">5</MaxConsecutiveFreeDays>
      <MinConsecutiveFreeDays on="1" weight="1">1</MinConsecutiveFreeDays>
      <MaxConsecutiveWorkingWeekends on="0" weight="0">5</MaxConsecutiveWorkingWeekends>
      <MinConsecutiveWorkingWeekends on="0" weight="0">2</MinConsecutiveWorkingWeekends>
      <MaxWorkingWeekendsInFourWeeks on="0" weight="0">0</MaxWorkingWeekendsInFourWeeks>
      <WeekendDefinition>SaturdaySunday</WeekendDefinition>
      <CompleteWeekends weight="1">true</CompleteWeekends>
      <IdenticalCourseTypesDuringWeekend weight="1">true</IdenticalCourseTypesDuringWeekend>
      <NoNightCourseBeforeFreeWeekend weight="0">false</NoNightCourseBeforeFreeWeekend>
      <UnwantedPatterns>
        <Pattern>0</Pattern>
        <Pattern>1</Pattern>
        <Pattern>2</Pattern>
      </UnwantedPatterns>
    </Contract>
    <Contract ID="2">
      <Description>50_percent</Description>
      <SingleAssignmentPerDay weight="1">true</SingleAssignmentPerDay>
      <MaxNumAssignments on="1" weight="1">9</MaxNumAssignments>
      <MinNumAssignments on="1" weight="1">4</MinNumAssignments>
      <MaxConsecutiveWorkingDays on="1" weight="1">4</MaxConsecutiveWorkingDays>
      <MinConsecutiveWorkingDays on="1" weight="1">2</MinConsecutiveWorkingDays>
      <MaxConsecutiveFreeDays on="1" weight="1">7</MaxConsecutiveFreeDays>
      <MinConsecutiveFreeDays on="1" weight="1">1</MinConsecutiveFreeDays>
      <MaxConsecutiveWorkingWeekends on="0" weight="0">4</MaxConsecutiveWorkingWeekends>
      <MinConsecutiveWorkingWeekends on="0" weight="0">2</MinConsecutiveWorkingWeekends>
      <MaxWorkingWeekendsInFourWeeks on="0" weight="0">0</MaxWorkingWeekendsInFourWeeks>
      <WeekendDefinition>SaturdaySunday</WeekendDefinition>
      <CompleteWeekends weight="1">true</CompleteWeekends>
      <IdenticalCourseTypesDuringWeekend weight="1">true</IdenticalCourseTypesDuringWeekend>
      <NoNightCourseBeforeFreeWeekend weight="0">false</NoNightCourseBeforeFreeWeekend>
      <UnwantedPatterns>
        <Pattern>0</Pattern>
        <Pattern>1</Pattern>
        <Pattern>2</Pattern>
      </UnwantedPatterns>
    </Contract>
    <Contract ID="3">
      <Description>night</Description>
      <SingleAssignmentPerDay weight="1">true</SingleAssignmentPerDay>
      <MaxNumAssignments on="1" weight="1">8</MaxNumAssignments>
      <MinNumAssignments on="1" weight="1">8</MinNumAssignments>
      <MaxConsecutiveWorkingDays on="1" weight="1">2</MaxConsecutiveWorkingDays>
      <MinConsecutiveWorkingDays on="1" weight="1">1</MinConsecutiveWorkingDays>
      <MaxConsecutiveFreeDays on="1" weight="1">20</MaxConsecutiveFreeDays>
      <MinConsecutiveFreeDays on="1" weight="1">3</MinConsecutiveFreeDays>
      <MaxConsecutiveWorkingWeekends on="0" weight="0">2</MaxConsecutiveWorkingWeekends>
      <MinConsecutiveWorkingWeekends on="0" weight="0">1</MinConsecutiveWorkingWeekends>
      <MaxWorkingWeekendsInFourWeeks on="0" weight="0">0</MaxWorkingWeekendsInFourWeeks>
      <WeekendDefinition>SaturdaySunday</WeekendDefinition>
      <CompleteWeekends weight="1">true</CompleteWeekends>
      <IdenticalCourseTypesDuringWeekend weight="1">true</IdenticalCourseTypesDuringWeekend>
      <NoNightCourseBeforeFreeWeekend weight="0">false</NoNightCourseBeforeFreeWeekend>
      <UnwantedPatterns>
        <Pattern>0</Pattern>
        <Pattern>1</Pattern>
        <Pattern>2</Pattern>
      </UnwantedPatterns>
    </Contract>
  </Contracts>
  <Tas>
    <Ta ID="0">
      <ContractID>0</ContractID>
      <Name>0</Name>
    </Ta>
    <Ta ID="1">
      <ContractID>0</ContractID>
      <Name>1</Name>
    </Ta>
    <Ta ID="2">
      <ContractID>0</ContractID>
      <Name>2</Name>
    </Ta>
    <Ta ID="3">
      <ContractID>0</ContractID>
      <Name>3</Name>
    </Ta>
    <Ta ID="4">
      <ContractID>1</ContractID>
      <Name>4</Name>
    </Ta>
    <Ta ID="5">
      <ContractID>1</ContractID>
      <Name>5</Name>
    </Ta>
    <Ta ID="6">
      <ContractID>2</ContractID>
      <Name>6</Name>
    </Ta>
    <Ta ID="7">
      <ContractID>2</ContractID>
      <Name>7</Name>
    </Ta>
    <Ta ID="8">
      <ContractID>3</ContractID>
      <Name>8</Name>
    </Ta>
    <Ta ID="9">
      <ContractID>3</ContractID>
      <Name>9</Name>
    </Ta>
  </Tas>
  <CoverRequirements>
    <DayOfWeekCover>
      <Day>Monday</Day>
      <Cover>
        <Course>E</Course>
        <Preferred>2</Preferred>
      </Cover>
      <Cover>
        <Course>L</Course>
        <Preferred>2</Preferred>
      </Cover>
      <Cover>
        <Course>D</Course>
        <Preferred>1</Preferred>
      </Cover>
      <Cover>
        <Course>N</Course>
        <Preferred>1</Preferred>
      </Cover>
    </DayOfWeekCover>
    <DayOfWeekCover>
      <Day>Tuesday</Day>
      <Cover>
        <Course>E</Course>
        <Preferred>2</Preferred>
      </Cover>
      <Cover>
        <Course>L</Course>
        <Preferred>2</Preferred>
      </Cover>
      <Cover>
        <Course>D</Course>
        <Preferred>1</Preferred>
      </Cover>
      <Cover>
        <Course>N</Course>
        <Preferred>1</Preferred>
      </Cover>
    </DayOfWeekCover>
    <DayOfWeekCover>
      <Day>Wednesday</Day>
      <Cover>
        <Course>E</Course>
        <Preferred>2</Preferred>
      </Cover>
      <Cover>
        <Course>L</Course>
        <Preferred>2</Preferred>
      </Cover>
      <Cover>
        <Course>D</Course>
        <Preferred>1</Preferred>
      </Cover>
      <Cover>
        <Course>N</Course>
        <Preferred>1</Preferred>
      </Cover>
    </DayOfWeekCover>
    <DayOfWeekCover>
      <Day>Thursday</Day>
      <Cover>
        <Course>E</Course>
        <Preferred>2</Preferred>
      </Cover>
      <Cover>
        <Course>L</Course>
        <Preferred>2</Preferred>
      </Cover>
      <Cover>
        <Course>D</Course>
        <Preferred>1</Preferred>
      </Cover>
      <Cover>
        <Course>N</Course>
        <Preferred>1</Preferred>
      </Cover>
    </DayOfWeekCover>
    <DayOfWeekCover>
      <Day>Friday</Day>
      <Cover>
        <Course>E</Course>
        <Preferred>2</Preferred>
      </Cover>
      <Cover>
        <Course>L</Course>
        <Preferred>2</Preferred>
      </Cover>
      <Cover>
        <Course>D</Course>
        <Preferred>1</Preferred>
      </Cover>
      <Cover>
        <Course>N</Course>
        <Preferred>1</Preferred>
      </Cover>
    </DayOfWeekCover>
    <DayOfWeekCover>
      <Day>Saturday</Day>
      <Cover>
        <Course>E</Course>
        <Preferred>1</Preferred>
      </Cover>
      <Cover>
        <Course>L</Course>
        <Preferred>1</Preferred>
      </Cover>
      <Cover>
        <Course>D</Course>
        <Preferred>1</Preferred>
      </Cover>
      <Cover>
        <Course>N</Course>
        <Preferred>1</Preferred>
      </Cover>
    </DayOfWeekCover>
    <DayOfWeekCover>
      <Day>Sunday</Day>
      <Cover>
        <Course>E</Course>
        <Preferred>1</Preferred>
      </Cover>
      <Cover>
        <Course>L</Course>
        <Preferred>1</Preferred>
      </Cover>
      <Cover>
        <Course>D</Course>
        <Preferred>1</Preferred>
      </Cover>
      <Cover>
        <Course>N</Course>
        <Preferred>1</Preferred>
      </Cover>
    </DayOfWeekCover>
  </CoverRequirements>
  <DayOffRequests>
    <DayOff weight="1">
      <TaID>0</TaID>
      <Date>2010-01-02</Date>
    </DayOff>
    <DayOff weight="1">
      <TaID>0</TaID>
      <Date>2010-01-08</Date>
    </DayOff>
    <DayOff weight="1">
      <TaID>0</TaID>
      <Date>2010-01-07</Date>
    </DayOff>
    <DayOff weight="1">
      <TaID>0</TaID>
      <Date>2010-01-05</Date>
    </DayOff>
    <DayOff weight="1">
      <TaID>0</TaID>
      <Date>2010-01-15</Date>
    </DayOff>
    <DayOff weight="1">
      <TaID>0</TaID>
      <Date>2010-01-04</Date>
    </DayOff>
    <DayOff weight="1">
      <TaID>0</TaID>
      <Date>2010-01-25</Date>
    </DayOff>
    <DayOff weight="1">
      <TaID>0</TaID>
      <Date>2010-01-16</Date>
    </DayOff>
    <DayOff weight="1">
      <TaID>0</TaID>
      <Date>2010-01-01</Date>
    </DayOff>
    <DayOff weight="1">
      <TaID>0</TaID>
      <Date>2010-01-27</Date>
    </DayOff>
    <DayOff weight="1">
      <TaID>1</TaID>
      <Date>2010-01-20</Date>
    </DayOff>
    <DayOff weight="1">
      <TaID>1</TaID>
      <Date>2010-01-15</Date>
    </DayOff>
    <DayOff weight="1">
      <TaID>1</TaID>
      <Date>2010-01-18</Date>
    </DayOff>
    <DayOff weight="1">
      <TaID>1</TaID>
      <Date>2010-01-11</Date>
    </DayOff>
    <DayOff weight="1">
      <TaID>1</TaID>
      <Date>2010-01-17</Date>
    </DayOff>
    <DayOff weight="1">
      <TaID>1</TaID>
      <Date>2010-01-04</Date>
    </DayOff>
    <DayOff weight="1">
      <TaID>1</TaID>
      <Date>2010-01-08</Date>
    </DayOff>
    <DayOff weight="1">
      <TaID>1</TaID>
      <Date>2010-01-07</Date>
    </DayOff>
    <DayOff weight="1">
      <TaID>1</TaID>
      <Date>2010-01-23</Date>
    </DayOff>
    <DayOff weight="1">
      <TaID>1</TaID>
      <Date>2010-01-06</Date>
    </DayOff>
    <DayOff weight="1">
      <TaID>2</TaID>
      <Date>2010-01-08</Date>
    </DayOff>
    <DayOff weight="1">
      <TaID>2</TaID>
      <Date>2010-01-01</Date>
    </DayOff>
    <DayOff weight="1">
      <TaID>2</TaID>
      <Date>2010-01-21</Date>
    </DayOff>
    <DayOff weight="1">
      <TaID>2</TaID>
      <Date>2010-01-16</Date>
    </DayOff>
    <DayOff weight="1">
      <TaID>2</TaID>
      <Date>2010-01-04</Date>
    </DayOff>
    <DayOff weight="1">
      <TaID>2</TaID>
      <Date>2010-01-22</Date>
    </DayOff>
    <DayOff weight="1">
      <TaID>2</TaID>
      <Date>2010-01-14</Date>
    </DayOff>
    <DayOff weight="1">
      <TaID>2</TaID>
      <Date>2010-01-09</Date>
    </DayOff>
    <DayOff weight="1">
      <TaID>2</TaID>
      <Date>2010-01-17</Date>
    </DayOff>
    <DayOff weight="1">
      <TaID>2</TaID>
      <Date>2010-01-20</Date>
    </DayOff>
    <DayOff weight="1">
      <TaID>3</TaID>
      <Date>2010-01-14</Date>
    </DayOff>
    <DayOff weight="1">
      <TaID>3</TaID>
      <Date>2010-01-21</Date>
    </DayOff>
    <DayOff weight="1">
      <TaID>3</TaID>
      <Date>2010-01-17</Date>
    </DayOff>
    <DayOff weight="1">
      <TaID>3</TaID>
      <Date>2010-01-20</Date>
    </DayOff>
    <DayOff weight="1">
      <TaID>3</TaID>
      <Date>2010-01-16</Date>
    </DayOff>
    <DayOff weight="1">
      <TaID>3</TaID>
      <Date>2010-01-25</Date>
    </DayOff>
    <DayOff weight="1">
      <TaID>3</TaID>
      <Date>2010-01-10</Date>
    </DayOff>
    <DayOff weight="1">
      <TaID>3</TaID>
      <Date>2010-01-13</Date>
    </DayOff>
    <DayOff weight="1">
      <TaID>3</TaID>
      <Date>2010-01-09</Date>
    </DayOff>
    <DayOff weight="1">
      <TaID>3</TaID>
      <Date>2010-01-18</Date>
    </DayOff>
    <DayOff weight="1">
      <TaID>4</TaID>
      <Date>2010-01-18</Date>
    </DayOff>
    <DayOff weight="1">
      <TaID>4</TaID>
      <Date>2010-01-07</Date>
    </DayOff>
    <DayOff weight="1">
      <TaID>4</TaID>
      <Date>2010-01-02</Date>
    </DayOff>
    <DayOff weight="1">
      <TaID>4</TaID>
      <Date>2010-01-28</Date>
    </DayOff>
    <DayOff weight="1">
      <TaID>4</TaID>
      <Date>2010-01-17</Date>
    </DayOff>
    <DayOff weight="1">
      <TaID>4</TaID>
      <Date>2010-01-21</Date>
    </DayOff>
    <DayOff weight="1">
      <TaID>4</TaID>
      <Date>2010-01-24</Date>
    </DayOff>
    <DayOff weight="1">
      <TaID>4</TaID>
      <Date>2010-01-06</Date>
    </DayOff>
    <DayOff weight="1">
      <TaID>4</TaID>
      <Date>2010-01-04</Date>
    </DayOff>
    <DayOff weight="1">
      <TaID>4</TaID>
      <Date>2010-01-10</Date>
    </DayOff>
    <DayOff weight="1">
      <TaID>5</TaID>
      <Date>2010-01-04</Date>
    </DayOff>
    <DayOff weight="1">
      <TaID>5</TaID>
      <Date>2010-01-22</Date>
    </DayOff>
    <DayOff weight="1">
      <TaID>5</TaID>
      <Date>2010-01-14</Date>
    </DayOff>
    <DayOff weight="1">
      <TaID>5</TaID>
      <Date>2010-01-07</Date>
    </DayOff>
    <DayOff weight="1">
      <TaID>5</TaID>
      <Date>2010-01-27</Date>
    </DayOff>
    <DayOff weight="1">
      <TaID>5</TaID>
      <Date>2010-01-25</Date>
    </DayOff>
    <DayOff weight="1">
      <TaID>5</TaID>
      <Date>2010-01-17</Date>
    </DayOff>
    <DayOff weight="1">
      <TaID>5</TaID>
      <Date>2010-01-20</Date>
    </DayOff>
    <DayOff weight="1">
      <TaID>5</TaID>
      <Date>2010-01-09</Date>
    </DayOff>
    <DayOff weight="1">
      <TaID>5</TaID>
      <Date>2010-01-23</Date>
    </DayOff>
    <DayOff weight="1">
      <TaID>6</TaID>
      <Date>2010-01-17</Date>
    </DayOff>
    <DayOff weight="1">
      <TaID>6</TaID>
      <Date>2010-01-10</Date>
    </DayOff>
    <DayOff weight="1">
      <TaID>6</TaID>
      <Date>2010-01-27</Date>
    </DayOff>
    <DayOff weight="1">
      <TaID>6</TaID>
      <Date>2010-01-07</Date>
    </DayOff>
    <DayOff weight="1">
      <TaID>6</TaID>
      <Date>2010-01-15</Date>
    </DayOff>
    <DayOff weight="1">
      <TaID>6</TaID>
      <Date>2010-01-19</Date>
    </DayOff>
    <DayOff weight="1">
      <TaID>6</TaID>
      <Date>2010-01-20</Date>
    </DayOff>
    <DayOff weight="1">
      <TaID>6</TaID>
      <Date>2010-01-18</Date>
    </DayOff>
    <DayOff weight="1">
      <TaID>6</TaID>
      <Date>2010-01-03</Date>
    </DayOff>
    <DayOff weight="1">
      <TaID>6</TaID>
      <Date>2010-01-28</Date>
    </DayOff>
    <DayOff weight="1">
      <TaID>7</TaID>
      <Date>2010-01-27</Date>
    </DayOff>
    <DayOff weight="1">
      <TaID>7</TaID>
      <Date>2010-01-02</Date>
    </DayOff>
    <DayOff weight="1">
      <TaID>7</TaID>
      <Date>2010-01-07</Date>
    </DayOff>
    <DayOff weight="1">
      <TaID>7</TaID>
      <Date>2010-01-25</Date>
    </DayOff>
    <DayOff weight="1">
      <TaID>7</TaID>
      <Date>2010-01-19</Date>
    </DayOff>
    <DayOff weight="1">
      <TaID>7</TaID>
      <Date>2010-01-18</Date>
    </DayOff>
    <DayOff weight="1">
      <TaID>7</TaID>
      <Date>2010-01-14</Date>
    </DayOff>
    <DayOff weight="1">
      <TaID>7</TaID>
      <Date>2010-01-12</Date>
    </DayOff>
    <DayOff weight="1">
      <TaID>7</TaID>
      <Date>2010-01-16</Date>
    </DayOff>
    <DayOff weight="1">
      <TaID>7</TaID>
      <Date>2010-01-22</Date>
    </DayOff>
    <DayOff weight="1">
      <TaID>8</TaID>
      <Date>2010-01-07</Date>
    </DayOff>
    <DayOff weight="1">
      <TaID>8</TaID>
      <Date>2010-01-05</Date>
    </DayOff>
    <DayOff weight="1">
      <TaID>8</TaID>
      <Date>2010-01-15</Date>
    </DayOff>
    <DayOff weight="1">
      <TaID>8</TaID>
      <Date>2010-01-10</Date>
    </DayOff>
    <DayOff weight="1">
      <TaID>8</TaID>
      <Date>2010-01-08</Date>
    </DayOff>
    <DayOff weight="1">
      <TaID>8</TaID>
      <Date>2010-01-04</Date>
    </DayOff>
    <DayOff weight="1">
      <TaID>8</TaID>
      <Date>2010-01-26</Date>
    </DayOff>
    <DayOff weight="1">
      <TaID>8</TaID>
      <Date>2010-01-09</Date>
    </DayOff>
    <DayOff weight="1">
      <TaID>8</TaID>
      <Date>2010-01-14</Date>
    </DayOff>
    <DayOff weight="1">
      <TaID>8</TaID>
      <Date>2010-01-22</Date>
    </DayOff>
    <DayOff weight="1">
      <TaID>9</TaID>
      <Date>2010-01-06</Date>
    </DayOff>
    <DayOff weight="1">
      <TaID>9</TaID>
      <Date>2010-01-22</Date>
    </DayOff>
    <DayOff weight="1">
      <TaID>9</TaID>
      <Date>2010-01-19</Date>
    </DayOff>
    <DayOff weight="1">
      <TaID>9</TaID>
      <Date>2010-01-21</Date>
    </DayOff>
    <DayOff weight="1">
      <TaID>9</TaID>
      <Date>2010-01-02</Date>
    </DayOff>
    <DayOff weight="1">
      <TaID>9</TaID>
      <Date>2010-01-27</Date>
    </DayOff>
    <DayOff weight="1">
      <TaID>9</TaID>
      <Date>2010-01-24</Date>
    </DayOff>
    <DayOff weight="1">
      <TaID>9</TaID>
      <Date>2010-01-17</Date>
    </DayOff>
    <DayOff weight="1">
      <TaID>9</TaID>
      <Date>2010-01-16</Date>
    </DayOff>
    <DayOff weight="1">
      <TaID>9</TaID>
      <Date>2010-01-04</Date>
    </DayOff>
  </DayOffRequests>
  <CourseOffRequests>
    <CourseOff weight="1">
      <CourseTypeID>E</CourseTypeID>
      <TaID>0</TaID>
      <Date>2010-01-03</Date>
    </CourseOff>
    <CourseOff weight="1">
      <CourseTypeID>L</CourseTypeID>
      <TaID>0</TaID>
      <Date>2010-01-13</Date>
    </CourseOff>
    <CourseOff weight="1">
      <CourseTypeID>N</CourseTypeID>
      <TaID>0</TaID>
      <Date>2010-01-12</Date>
    </CourseOff>
    <CourseOff weight="1">
      <CourseTypeID>L</CourseTypeID>
      <TaID>0</TaID>
      <Date>2010-01-04</Date>
    </CourseOff>
    <CourseOff weight="1">
      <CourseTypeID>D</CourseTypeID>
      <TaID>0</TaID>
      <Date>2010-01-02</Date>
    </CourseOff>
    <CourseOff weight="1">
      <CourseTypeID>N</CourseTypeID>
      <TaID>1</TaID>
      <Date>2010-01-18</Date>
    </CourseOff>
    <CourseOff weight="1">
      <CourseTypeID>N</CourseTypeID>
      <TaID>1</TaID>
      <Date>2010-01-09</Date>
    </CourseOff>
    <CourseOff weight="1">
      <CourseTypeID>L</CourseTypeID>
      <TaID>1</TaID>
      <Date>2010-01-27</Date>
    </CourseOff>
    <CourseOff weight="1">
      <CourseTypeID>L</CourseTypeID>
      <TaID>1</TaID>
      <Date>2010-01-08</Date>
    </CourseOff>
    <CourseOff weight="1">
      <CourseTypeID>N</CourseTypeID>
      <TaID>1</TaID>
      <Date>2010-01-19</Date>
    </CourseOff>
    <CourseOff weight="1">
      <CourseTypeID>L</CourseTypeID>
      <TaID>2</TaID>
      <Date>2010-01-27</Date>
    </CourseOff>
    <CourseOff weight="1">
      <CourseTypeID>N</CourseTypeID>
      <TaID>2</TaID>
      <Date>2010-01-09</Date>
    </CourseOff>
    <CourseOff weight="1">
      <CourseTypeID>L</CourseTypeID>
      <TaID>2</TaID>
      <Date>2010-01-24</Date>
    </CourseOff>
    <CourseOff weight="1">
      <CourseTypeID>D</CourseTypeID>
      <TaID>2</TaID>
      <Date>2010-01-11</Date>
    </CourseOff>
    <CourseOff weight="1">
      <CourseTypeID>L</CourseTypeID>
      <TaID>2</TaID>
      <Date>2010-01-17</Date>
    </CourseOff>
    <CourseOff weight="1">
      <CourseTypeID>E</CourseTypeID>
      <TaID>3</TaID>
      <Date>2010-01-11</Date>
    </CourseOff>
    <CourseOff weight="1">
      <CourseTypeID>D</CourseTypeID>
      <TaID>3</TaID>
      <Date>2010-01-19</Date>
    </CourseOff>
    <CourseOff weight="1">
      <CourseTypeID>E</CourseTypeID>
      <TaID>3</TaID>
      <Date>2010-01-13</Date>
    </CourseOff>
    <CourseOff weight="1">
      <CourseTypeID>E</CourseTypeID>
      <TaID>3</TaID>
      <Date>2010-01-10</Date>
    </CourseOff>
    <CourseOff weight="1">
      <CourseTypeID>E</CourseTypeID>
      <TaID>3</TaID>
      <Date>2010-01-01</Date>
    </CourseOff>
    <CourseOff weight="1">
      <CourseTypeID>E</CourseTypeID>
      <TaID>4</TaID>
      <Date>2010-01-01</Date>
    </CourseOff>
    <CourseOff weight="1">
      <CourseTypeID>E</CourseTypeID>
      <TaID>4</TaID>
      <Date>2010-01-21</Date>
    </CourseOff>
    <CourseOff weight="1">
      <CourseTypeID>E</CourseTypeID>
      <TaID>4</TaID>
      <Date>2010-01-25</Date>
    </CourseOff>
    <CourseOff weight="1">
      <CourseTypeID>D</CourseTypeID>
      <TaID>4</TaID>
      <Date>2010-01-17</Date>
    </CourseOff>
    <CourseOff weight="1">
      <CourseTypeID>E</CourseTypeID>
      <TaID>4</TaID>
      <Date>2010-01-22</Date>
    </CourseOff>
    <CourseOff weight="1">
      <CourseTypeID>E</CourseTypeID>
      <TaID>5</TaID>
      <Date>2010-01-05</Date>
    </CourseOff>
    <CourseOff weight="1">
      <CourseTypeID>L</CourseTypeID>
      <TaID>5</TaID>
      <Date>2010-01-13</Date>
    </CourseOff>
    <CourseOff weight="1">
      <CourseTypeID>L</CourseTypeID>
      <TaID>5</TaID>
      <Date>2010-01-20</Date>
    </CourseOff>
    <CourseOff weight="1">
      <CourseTypeID>E</CourseTypeID>
      <TaID>5</TaID>
      <Date>2010-01-04</Date>
    </CourseOff>
    <CourseOff weight="1">
      <CourseTypeID>D</CourseTypeID>
      <TaID>5</TaID>
      <Date>2010-01-05</Date>
    </CourseOff>
    <CourseOff weight="1">
      <CourseTypeID>E</CourseTypeID>
      <TaID>6</TaID>
      <Date>2010-01-27</Date>
    </CourseOff>
    <CourseOff weight="1">
      <CourseTypeID>D</CourseTypeID>
      <TaID>6</TaID>
      <Date>2010-01-14</Date>
    </CourseOff>
    <CourseOff weight="1">
      <CourseTypeID>E</CourseTypeID>
      <TaID>6</TaID>
      <Date>2010-01-18</Date>
    </CourseOff>
    <CourseOff weight="1">
      <CourseTypeID>L</CourseTypeID>
      <TaID>6</TaID>
      <Date>2010-01-15</Date>
    </CourseOff>
    <CourseOff weight="1">
      <CourseTypeID>D</CourseTypeID>
      <TaID>6</TaID>
      <Date>2010-01-03</Date>
    </CourseOff>
    <CourseOff weight="1">
      <CourseTypeID>L</CourseTypeID>
      <TaID>7</TaID>
      <Date>2010-01-18</Date>
    </CourseOff>
    <CourseOff weight="1">
      <CourseTypeID>L</CourseTypeID>
      <TaID>7</TaID>
      <Date>2010-01-07</Date>
    </CourseOff>
    <CourseOff weight="1">
      <CourseTypeID>L</CourseTypeID>
      <TaID>7</TaID>
      <Date>2010-01-10</Date>
    </CourseOff>
    <CourseOff weight="1">
      <CourseTypeID>N</CourseTypeID>
      <TaID>7</TaID>
      <Date>2010-01-18</Date>
    </CourseOff>
    <CourseOff weight="1">
      <CourseTypeID>D</CourseTypeID>
      <TaID>7</TaID>
      <Date>2010-01-13</Date>
    </CourseOff>
    <CourseOff weight="1">
      <CourseTypeID>E</CourseTypeID>
      <TaID>8</TaID>
      <Date>2010-01-17</Date>
    </CourseOff>
    <CourseOff weight="1">
      <CourseTypeID>N</CourseTypeID>
      <TaID>8</TaID>
      <Date>2010-01-12</Date>
    </CourseOff>
    <CourseOff weight="1">
      <CourseTypeID>N</CourseTypeID>
      <TaID>8</TaID>
      <Date>2010-01-28</Date>
    </CourseOff>
    <CourseOff weight="1">
      <CourseTypeID>E</CourseTypeID>
      <TaID>8</TaID>
      <Date>2010-01-23</Date>
    </CourseOff>
    <CourseOff weight="1">
      <CourseTypeID>E</CourseTypeID>
      <TaID>8</TaID>
      <Date>2010-01-27</Date>
    </CourseOff>
    <CourseOff weight="1">
      <CourseTypeID>N</CourseTypeID>
      <TaID>9</TaID>
      <Date>2010-01-01</Date>
    </CourseOff>
    <CourseOff weight="1">
      <CourseTypeID>L</CourseTypeID>
      <TaID>9</TaID>
      <Date>2010-01-21</Date>
    </CourseOff>
    <CourseOff weight="1">
      <CourseTypeID>N</CourseTypeID>
      <TaID>9</TaID>
      <Date>2010-01-10</Date>
    </CourseOff>
    <CourseOff weight="1">
      <CourseTypeID>N</CourseTypeID>
      <TaID>9</TaID>
      <Date>2010-01-21</Date>
    </CourseOff>
    <CourseOff weight="1">
      <CourseTypeID>L</CourseTypeID>
      <TaID>9</TaID>
      <Date>2010-01-25</Date>
    </CourseOff>
  </CourseOffRequests>
</SchedulingPeriod>
